     Program PWSCF v.7.2 starts on 10Mar2025 at 10:57:12

     Reading input from pw.in

     Current dimensions of program PWSCF are:
     Max number of different atomic species (ntypx) = 10
     Max number of k-points (npk) =  40000
     Max angular momentum in pseudopotentials (lmaxx) =  4
     file Fe.pbesol-spn-kjpaw_psl.0.2.1.UPF: wavefunction(s)  3D renormalized
     file Fe.pbesol-spn-kjpaw_psl.0.2.1.UPF: wavefunction(s)  3D renormalized
     file O.pbesol-n-kjpaw_psl.0.1.UPF: wavefunction(s)  2P renormalized
     Message from routine setup:
     using ibrav=0 with symmetry is DISCOURAGED, use correct ibrav instead

     K-points division:     npool     =       4
     R & G space division:  proc/nbgrp/npool/nimage =       8
     Subspace diagonalization in iterative solution of the eigenvalue problem:
     a serial algorithm will be used

     Using Slab Decomposition

     bravais-lattice index     =            0
     lattice parameter (alat)  =      11.2204  a.u.
     unit-cell volume          =     998.8703 (a.u.)^3
     number of atoms/cell      =           14
     number of atomic types    =            3
     number of electrons       =       144.00
     number of Kohn-Sham states=           86
     kinetic-energy cutoff     =      90.0000  Ry
     charge density cutoff     =    1080.0000  Ry
     scf convergence threshold =      2.8E-09
     mixing beta               =       0.4000
     number of iterations used =            8  plain     mixing
     energy convergence thresh.=      1.4E-04
     force convergence thresh. =      1.0E-04
     press convergence thresh. =      5.0E-01
     Exchange-correlation= SLA  PW   PSX  PSC
                           (   1   4  10   8   0   0   0)
     nstep                     =         1000

     celldm(1)=  11.220392  celldm(2)=   0.000000  celldm(3)=   0.000000
     celldm(4)=   0.000000  celldm(5)=   0.000000  celldm(6)=   0.000000

     crystal axes: (cart. coord. in units of alat)
               a(1) = (   0.000000   0.707107   0.707107 )
               a(2) = (   0.707107   0.000000   0.707107 )
               a(3) = (   0.707107   0.707107   0.000000 )

     reciprocal axes: (cart. coord. in units 2 pi/alat)
               b(1) = ( -0.707107  0.707107  0.707107 )
               b(2) = (  0.707107 -0.707107  0.707107 )
               b(3) = (  0.707107  0.707107 -0.707107 )

     PseudoPot. # 1 for Fe read from file:
     ./pseudo/Fe.pbesol-spn-kjpaw_psl.0.2.1.UPF
     MD5 check sum: 4d7ec5aa2156491519a4322664fbbf52
     Pseudo is Projector augmented-wave + core cor, Zval = 16.0
     Generated using "atomic" code by A. Dal Corso  v.6.0 svn rev. 13079
     Shape of augmentation charge: PSQ
     Using radial grid of 1191 points,  6 beta functions with:
                l(1) =   0
                l(2) =   0
                l(3) =   1
                l(4) =   1
                l(5) =   2
                l(6) =   2
     Q(r) pseudized with 0 coefficients

[...]

     PseudoPot. # 3 for O  read from file:
     ./pseudo/O.pbesol-n-kjpaw_psl.0.1.UPF
     MD5 check sum: 81d73d1479e654e5638b0319f0d6c2c7
     Pseudo is Projector augmented-wave + core cor, Zval =  6.0
     Generated using "atomic" code by A. Dal Corso  v.6.0 svn rev. 13079
     Shape of augmentation charge: BESSEL
     Using radial grid of 1095 points,  4 beta functions with:
                l(1) =   0
                l(2) =   0
                l(3) =   1
                l(4) =   1
     Q(r) pseudized with 0 coefficients

     atomic species   valence    mass     pseudopotential
        Fe1           16.00    55.84500     Fe( 1.00)
        Fe2           16.00    55.84500     Fe( 1.00)
        O              6.00    15.99940     O ( 1.00)

     Starting magnetic structure
     atomic species   magnetization
        Fe1         -1.000
        Fe2          1.000
        O            0.000

     48 Sym. Ops., with inversion, found (24 have fractional translation)

                                    s                        frac. trans.

      isym =  1     identity

 cryst.   s( 1) = (     1          0          0      )
                  (     0          1          0      )
                  (     0          0          1      )

 cart.    s( 1) = (  1.0000000 -0.0000000  0.0000000 )
                  ( -0.0000000  1.0000000  0.0000000 )
                  ( -0.0000000  0.0000000  1.0000000 )

      isym =  2     180 deg rotation - cart. axis [0,0,1]

[...]

 cryst.   s( 5) = (    -1          0          1      )    f =( -0.2500000 )
                  (     0         -1          1      )       ( -0.2500000 )
                  (     0          0          1      )       ( -0.2500000 )

 cart.    s( 5) = ( -0.0000000  1.0000000 -0.0000000 )    f =( -0.3535534 )
                  (  1.0000000 -0.0000000 -0.0000000 )       ( -0.3535534 )
                  (  0.0000000 -0.0000000 -1.0000000 )       ( -0.3535534 )

[...]

 cryst.   s(10) = (     0          0         -1      )    f =( -0.2500000 )
                  (     0         -1          0      )       ( -0.2500000 )
                  (    -1          0          0      )       ( -0.2500000 )

 cart.    s(10) = ( -0.0000000  0.0000000 -1.0000000 )    f =( -0.3535534 )
                  ( -0.0000000 -1.0000000  0.0000000 )       ( -0.3535534 )
                  ( -1.0000000 -0.0000000  0.0000000 )       ( -0.3535534 )

[...]

 cryst.   s(17) = (     0          0          1      )
                  (     1          0          0      )
                  (     0          1          0      )

 cart.    s(17) = (  0.0000000  1.0000000 -0.0000000 )
                  (  0.0000000 -0.0000000  1.0000000 )
                  (  1.0000000 -0.0000000  0.0000000 )

[...]

      isym = 25     inversion

[...]

      isym = 26     inv. 180 deg rotation - cart. axis [0,0,1]

[...]

   Cartesian axes

     site n.     atom                  positions (alat units)
         1           Fe1 tau(   1) = (   1.0606602   1.0606602   1.0606602  )
         2           Fe1 tau(   2) = (   0.7071068   0.7071068   0.7071068  )
         3           Fe2 tau(   3) = (   0.1767767   0.1767767   0.1767767  )
         4           Fe2 tau(   4) = (   0.5303301   0.5303301   0.1767767  )
         5           Fe2 tau(   5) = (   0.5303301   0.1767767   0.5303301  )
         6           Fe2 tau(   6) = (   0.1767767   0.5303301   0.5303301  )
         7           O   tau(   7) = (   1.2510699   1.2510699   1.2510699  )
         8           O   tau(   8) = (   0.5166971   0.5166971   0.5166971  )
         9           O   tau(   9) = (   0.8702504   0.8702504   1.2510699  )
        10           O   tau(  10) = (   0.8975165   0.8975165   0.5166971  )
        11           O   tau(  11) = (   0.8702504   1.2510699   0.8702504  )
        12           O   tau(  12) = (   0.8975165   0.5166971   0.8975165  )
        13           O   tau(  13) = (   1.2510699   0.8702504   0.8702504  )
        14           O   tau(  14) = (   0.5166971   0.8975165   0.8975165  )

   Crystallographic axes

     site n.     atom                  positions (cryst. coord.)
         1           Fe1 tau(   1) = (  0.7500000  0.7500000  0.7500000  )
         2           Fe1 tau(   2) = (  0.5000000  0.5000000  0.5000000  )
         3           Fe2 tau(   3) = (  0.1250000  0.1250000  0.1250000  )
         4           Fe2 tau(   4) = (  0.1250000  0.1250000  0.6250000  )
         5           Fe2 tau(   5) = (  0.1250000  0.6250000  0.1250000  )
         6           Fe2 tau(   6) = (  0.6250000  0.1250000  0.1250000  )
         7           O   tau(   7) = (  0.8846400  0.8846400  0.8846400  )
         8           O   tau(   8) = (  0.3653600  0.3653600  0.3653600  )
         9           O   tau(   9) = (  0.8846400  0.8846400  0.3460800  )
        10           O   tau(  10) = (  0.3653600  0.3653600  0.9039200  )
        11           O   tau(  11) = (  0.8846400  0.3460800  0.8846400  )
        12           O   tau(  12) = (  0.3653600  0.9039200  0.3653600  )
        13           O   tau(  13) = (  0.3460800  0.8846400  0.8846400  )
        14           O   tau(  14) = (  0.9039200  0.3653600  0.3653600  )

     number of k points=    35  Marzari-Vanderbilt smearing, width (Ry)=  0.0200
                       cart. coord. in units 2pi/alat
        k(    1) = (   0.0000000   0.0000000   0.0000000), wk =   0.0013717
        k(    2) = (   0.0785674   0.0785674  -0.0785674), wk =   0.0109739
        k(    3) = (   0.1571348   0.1571348  -0.1571348), wk =   0.0109739
        k(    4) = (   0.2357023   0.2357023  -0.2357023), wk =   0.0109739
        k(    5) = (   0.3142697   0.3142697  -0.3142697), wk =   0.0109739
        k(    6) = (   0.1571348   0.0000000  -0.0000000), wk =   0.0082305
        k(    7) = (   0.2357023   0.0785674  -0.0785674), wk =   0.0329218
        k(    8) = (   0.3142697   0.1571348  -0.1571348), wk =   0.0329218
        k(    9) = (   0.3928371   0.2357023  -0.2357023), wk =   0.0329218
        k(   10) = (  -0.2357023  -0.3928371   0.3928371), wk =   0.0329218
        k(   11) = (  -0.1571348  -0.3142697   0.3142697), wk =   0.0329218
        k(   12) = (  -0.0785674  -0.2357023   0.2357023), wk =   0.0329218
        k(   13) = (  -0.0000000  -0.1571348   0.1571348), wk =   0.0164609
        k(   14) = (   0.3142697   0.0000000  -0.0000000), wk =   0.0082305
        k(   15) = (   0.3928371   0.0785674  -0.0785674), wk =   0.0329218
        k(   16) = (   0.4714045   0.1571348  -0.1571348), wk =   0.0329218
        k(   17) = (  -0.1571348  -0.4714045   0.4714045), wk =   0.0329218
        k(   18) = (  -0.0785674  -0.3928371   0.3928371), wk =   0.0329218
        k(   19) = (  -0.0000000  -0.3142697   0.3142697), wk =   0.0164609
        k(   20) = (   0.4714045   0.0000000  -0.0000000), wk =   0.0082305
        k(   21) = (   0.5499719   0.0785674  -0.0785674), wk =   0.0329218
        k(   22) = (  -0.0785674  -0.5499719   0.5499719), wk =   0.0329218
        k(   23) = (  -0.0000000  -0.4714045   0.4714045), wk =   0.0164609
        k(   24) = (   0.6285394   0.0000000  -0.0000000), wk =   0.0082305
        k(   25) = (  -0.0000000  -0.6285394   0.6285394), wk =   0.0164609
        k(   26) = (   0.3142697   0.1571348  -0.0000000), wk =   0.0329218
        k(   27) = (   0.3928371   0.2357023  -0.0785674), wk =   0.0658436
        k(   28) = (  -0.2357023  -0.3928371   0.5499719), wk =   0.0658436
        k(   29) = (   0.4714045   0.1571348  -0.0000000), wk =   0.0329218
        k(   30) = (  -0.1571348  -0.4714045   0.6285394), wk =   0.0658436
        k(   31) = (  -0.0785674  -0.3928371   0.5499719), wk =   0.0658436
        k(   32) = (  -0.0000000  -0.3142697   0.4714045), wk =   0.0329218
        k(   33) = (  -0.0785674  -0.5499719   0.7071068), wk =   0.0329218
        k(   34) = (  -0.0000000  -0.4714045   0.6285394), wk =   0.0329218
        k(   35) = (  -0.0785674  -0.3928371   0.7071068), wk =   0.0329218

                       cryst. coord.
        k(    1) = (   0.0000000   0.0000000   0.0000000), wk =   0.0013717
        k(    2) = (  -0.0000000  -0.0000000   0.1111111), wk =   0.0109739
[...]
        k(   20) = (   0.0000000   0.3333333   0.3333333), wk =   0.0082305
        k(   21) = (  -0.0000000   0.3333333   0.4444444), wk =   0.0329218
        k(   22) = (  -0.0000000   0.3333333  -0.4444444), wk =   0.0329218
        k(   23) = (  -0.0000000   0.3333333  -0.3333333), wk =   0.0164609
        k(   24) = (   0.0000000   0.4444444   0.4444444), wk =   0.0082305
        k(   25) = (   0.0000000   0.4444444  -0.4444444), wk =   0.0164609
        k(   26) = (   0.1111111   0.2222222   0.3333333), wk =   0.0329218
        k(   27) = (   0.1111111   0.2222222   0.4444444), wk =   0.0658436
        k(   28) = (   0.1111111   0.2222222  -0.4444444), wk =   0.0658436
        k(   29) = (   0.1111111   0.3333333   0.4444444), wk =   0.0329218
        k(   30) = (   0.1111111   0.3333333  -0.4444444), wk =   0.0658436
        k(   31) = (   0.1111111   0.3333333  -0.3333333), wk =   0.0658436
        k(   32) = (   0.1111111   0.3333333  -0.2222222), wk =   0.0329218
        k(   33) = (   0.1111111   0.4444444  -0.4444444), wk =   0.0329218
        k(   34) = (   0.1111111   0.4444444  -0.3333333), wk =   0.0329218
        k(   35) = (   0.2222222   0.4444444  -0.3333333), wk =   0.0329218

     Check: negative core charge=   -0.000007
     Generating pointlists ...

     Initial potential from superposition of free atoms

     starting charge     143.9976, renormalised to     144.0000
     Starting wfcs are  110 randomized atomic wfcs
     Checking if some PAW data can be deallocated...

     Self-consistent Calculation

[...]

     c_bands:  1 eigenvalues not converged
     c_bands:  1 eigenvalues not converged
     ethr =  1.00E-06,  avg # of iterations = 16.4

[...]

     total energy              =   -2290.96206246 Ry
     estimated scf accuracy    <          1.7E-10 Ry

[...]

     iteration # 18     ecut=    90.00 Ry     beta= 0.40
     Davidson diagonalization with overlap

     ethr =  1.17E-13,  avg # of iterations =  5.0

[...]

     Magnetic moment per site  (integrated on atomic sphere of radius R)
     atom   1 (R=0.128)  charge= 12.7469  magn= -3.0548
     atom   2 (R=0.128)  charge= 12.7469  magn= -3.0548
     atom   3 (R=0.140)  charge= 13.2059  magn=  3.3373
     atom   4 (R=0.140)  charge= 13.2059  magn=  3.3373
     atom   5 (R=0.140)  charge= 13.2059  magn=  3.3373
     atom   6 (R=0.140)  charge= 13.2059  magn=  3.3373
     atom   7 (R=0.128)  charge=  5.1051  magn=  0.0844
     atom   8 (R=0.128)  charge=  5.1051  magn=  0.0844
     atom   9 (R=0.128)  charge=  5.1051  magn=  0.0844
     atom  10 (R=0.128)  charge=  5.1051  magn=  0.0844
     atom  11 (R=0.128)  charge=  5.1051  magn=  0.0844
     atom  12 (R=0.128)  charge=  5.1051  magn=  0.0844
     atom  13 (R=0.128)  charge=  5.1051  magn=  0.0844
     atom  14 (R=0.128)  charge=  5.1051  magn=  0.0844

     End of self-consistent calculation

 ------ SPIN UP ------------

[...]

 ------ SPIN DOWN ----------

[...]

          k = 0.4783 0.1594-0.0000 ( 13797 PWs)   bands (ev):

[...]

          k =-0.0797-0.3986 0.7174 ( 13766 PWs)   bands (ev):

   -77.6549 -77.6549 -73.4856 -73.4845 -73.4809 -73.4809 -43.8230 -43.8230
   -43.8221 -43.8219 -43.8210 -43.8210 -39.8791 -39.8684 -39.8332 -39.8328
   -39.7109 -39.7105 -39.7041 -39.7017 -39.6953 -39.6952 -39.6891 -39.6870
    -7.3566  -7.1967  -7.0210  -6.9611  -6.6322  -6.6124  -6.5847  -6.5686
     4.6470   4.7530   5.3931   5.4963   5.5435   5.6715   5.6836   5.8698
     6.0261   6.1412   6.1915   6.3009   6.3068   6.5161   6.8262   6.8878
     7.4621   7.4862   7.7388   7.8726   7.9714   8.0931   8.2557   8.3068
     9.5060   9.6233   9.7705   9.8590   9.9492  10.0651  10.4498  10.4603
    10.6668  10.6823  12.2025  12.2825  12.2858  12.4127  12.6508  12.7395
    12.7593  12.8223  13.0344  13.0487  13.0820  13.0940  14.0135  14.0532
    14.2068  14.2282  14.4766  14.5051  14.5316  14.5384

     occupation numbers
     1.0000   1.0000   1.0000   1.0000   1.0000   1.0000   1.0000   1.0000
     1.0000   1.0000   1.0000   1.0000   1.0000   1.0000   1.0000   1.0000
     1.0000   1.0000   1.0000   1.0000   1.0000   1.0000   1.0000   1.0000
     1.0000   1.0000   1.0000   1.0000   1.0000   1.0000   1.0000   1.0000
     1.0000   1.0000   1.0000   1.0000   1.0000   1.0000   1.0000   1.0000
     1.0000   1.0000   1.0000   1.0000   1.0000   1.0000   1.0000   1.0000
     1.0000   1.0000   1.0000   1.0000   1.0000   1.0000   1.0000   1.0000
     1.0000   1.0000   1.0000   1.0000   1.0000   1.0000   1.0000   1.0000
     1.0000   1.0000   0.3896   0.2169   0.2110   0.0598   0.0018   0.0003
     0.0002   0.0001   0.0000   0.0000   0.0000   0.0000   0.0000   0.0000
     0.0000   0.0000   0.0000   0.0000   0.0000   0.0000

     the Fermi energy is    12.1981 ev

!    total energy              =   -2290.96206246 Ry
     total all-electron energy =    -16459.814728 Ry
     estimated scf accuracy    <          1.2E-10 Ry
     smearing contrib. (-TS)   =      -0.00121880 Ry
     internal energy E=F+TS    =   -2290.96084366 Ry

     The total energy is F=E-TS. E is the sum of the following terms:
     one-electron contribution =    -929.98740732 Ry
     hartree contribution      =     543.83021038 Ry
     xc contribution           =    -265.93999523 Ry
     ewald contribution        =   -1121.51728898 Ry
     one-center paw contrib.   =    -517.34636251 Ry
      -> PAW hartree energy AE =     205.45294959 Ry
      -> PAW hartree energy PS =    -204.57911951 Ry
      -> PAW xc energy AE      =    -108.91414689 Ry
      -> PAW xc energy PS      =      33.95710445 Ry
      -> total E_H with PAW    =     544.70404047 Ry
      -> total E_XC with PAW   =    -340.89703768 Ry

     total magnetization       =     8.15 Bohr mag/cell
     absolute magnetization    =    22.16 Bohr mag/cell

     convergence has been achieved in  18 iterations

     negative rho (up, down):  1.232E-04 2.931E-04

     Forces acting on atoms (cartesian axes, Ry/au):

     atom    1 type  1   force =     0.00000000    0.00000000   -0.00000000
     atom    2 type  1   force =    -0.00000000    0.00000000    0.00000000
     atom    3 type  2   force =     0.00000000   -0.00000000    0.00000000
     atom    4 type  2   force =    -0.00000000    0.00000000    0.00000000
     atom    5 type  2   force =     0.00000000   -0.00000000    0.00000000
     atom    6 type  2   force =     0.00000000   -0.00000000   -0.00000000
     atom    7 type  3   force =    -0.00004512   -0.00004512   -0.00004512
     atom    8 type  3   force =     0.00004512    0.00004512    0.00004512
     atom    9 type  3   force =     0.00004512    0.00004512   -0.00004512
     atom   10 type  3   force =    -0.00004512   -0.00004512    0.00004512
     atom   11 type  3   force =     0.00004512   -0.00004512    0.00004512
     atom   12 type  3   force =    -0.00004512    0.00004512   -0.00004512
     atom   13 type  3   force =    -0.00004512    0.00004512    0.00004512
     atom   14 type  3   force =     0.00004512   -0.00004512   -0.00004512
     The non-local contrib.  to forces
     atom    1 type  1   force =     0.00000000   -0.00000000   -0.00000000
     atom    2 type  1   force =    -0.00000000    0.00000000   -0.00000000
     atom    3 type  2   force =    -0.00000000   -0.00000000    0.00000000
     atom    4 type  2   force =     0.00000000   -0.00000000    0.00000000
     atom    5 type  2   force =    -0.00000000   -0.00000000    0.00000000
     atom    6 type  2   force =    -0.00000000    0.00000000   -0.00000000
     atom    7 type  3   force =     0.05699563    0.05699563    0.05699563
     atom    8 type  3   force =    -0.05699563   -0.05699563   -0.05699563
     atom    9 type  3   force =    -0.05699563   -0.05699563    0.05699563
     atom   10 type  3   force =     0.05699563    0.05699563   -0.05699563
     atom   11 type  3   force =    -0.05699563    0.05699563   -0.05699563
     atom   12 type  3   force =     0.05699563   -0.05699563    0.05699563
     atom   13 type  3   force =     0.05699563   -0.05699563   -0.05699563
     atom   14 type  3   force =    -0.05699563    0.05699563    0.05699563
     The ionic contribution  to forces
     atom    1 type  1   force =     0.00000000    0.00000000    0.00000000
     atom    2 type  1   force =     0.00000000    0.00000000   -0.00000000
     atom    3 type  2   force =    -0.00000000    0.00000000    0.00000000
     atom    4 type  2   force =     0.00000000    0.00000000    0.00000000
     atom    5 type  2   force =     0.00000000    0.00000000    0.00000000
     atom    6 type  2   force =     0.00000000    0.00000000    0.00000000
     atom    7 type  3   force =    -2.52149753   -2.52149753   -2.52149753
     atom    8 type  3   force =     2.52149753    2.52149753    2.52149753
     atom    9 type  3   force =     2.52149753    2.52149753   -2.52149753
     atom   10 type  3   force =    -2.52149753   -2.52149753    2.52149753
     atom   11 type  3   force =     2.52149753   -2.52149753    2.52149753
     atom   12 type  3   force =    -2.52149753    2.52149753   -2.52149753
     atom   13 type  3   force =    -2.52149753    2.52149753    2.52149753
     atom   14 type  3   force =     2.52149753   -2.52149753   -2.52149753
     The local contribution  to forces
     atom    1 type  1   force =    -0.00000000   -0.00000000   -0.00000000
     atom    2 type  1   force =     0.00000000   -0.00000000    0.00000000
     atom    3 type  2   force =     0.00000000    0.00000000    0.00000000
     atom    4 type  2   force =     0.00000000    0.00000000    0.00000000
     atom    5 type  2   force =    -0.00000000    0.00000000   -0.00000000
     atom    6 type  2   force =     0.00000000   -0.00000000   -0.00000000
     atom    7 type  3   force =     2.46522671    2.46522671    2.46522671
     atom    8 type  3   force =    -2.46522671   -2.46522671   -2.46522671
     atom    9 type  3   force =    -2.46522671   -2.46522671    2.46522671
     atom   10 type  3   force =     2.46522671    2.46522671   -2.46522671
     atom   11 type  3   force =    -2.46522671    2.46522671   -2.46522671
     atom   12 type  3   force =     2.46522671   -2.46522671    2.46522671
     atom   13 type  3   force =     2.46522671   -2.46522671   -2.46522671
     atom   14 type  3   force =    -2.46522671    2.46522671    2.46522671
     The core correction contribution to forces
     atom    1 type  1   force =    -0.00000000   -0.00000000   -0.00000000
     atom    2 type  1   force =    -0.00000000   -0.00000000   -0.00000000
     atom    3 type  2   force =    -0.00000000   -0.00000000   -0.00000000
     atom    4 type  2   force =    -0.00000000   -0.00000000   -0.00000000
     atom    5 type  2   force =    -0.00000000   -0.00000000   -0.00000000
     atom    6 type  2   force =    -0.00000000    0.00000000   -0.00000000
     atom    7 type  3   force =    -0.00077414   -0.00077414   -0.00077414
     atom    8 type  3   force =     0.00077414    0.00077414    0.00077414
     atom    9 type  3   force =     0.00077414    0.00077414   -0.00077414
     atom   10 type  3   force =    -0.00077414   -0.00077414    0.00077414
     atom   11 type  3   force =     0.00077414   -0.00077414    0.00077414
     atom   12 type  3   force =    -0.00077414    0.00077414   -0.00077414
     atom   13 type  3   force =    -0.00077414    0.00077414    0.00077414
     atom   14 type  3   force =     0.00077414   -0.00077414   -0.00077414
     The Hubbard contrib.    to forces
     atom    1 type  1   force =     0.00000000    0.00000000    0.00000000
     atom    2 type  1   force =     0.00000000    0.00000000    0.00000000
     atom    3 type  2   force =     0.00000000    0.00000000    0.00000000
     atom    4 type  2   force =     0.00000000    0.00000000    0.00000000
     atom    5 type  2   force =     0.00000000    0.00000000    0.00000000
     atom    6 type  2   force =     0.00000000    0.00000000    0.00000000
     atom    7 type  3   force =     0.00000000    0.00000000    0.00000000
     atom    8 type  3   force =     0.00000000    0.00000000    0.00000000
     atom    9 type  3   force =     0.00000000    0.00000000    0.00000000
     atom   10 type  3   force =     0.00000000    0.00000000    0.00000000
     atom   11 type  3   force =     0.00000000    0.00000000    0.00000000
     atom   12 type  3   force =     0.00000000    0.00000000    0.00000000
     atom   13 type  3   force =     0.00000000    0.00000000    0.00000000
     atom   14 type  3   force =     0.00000000    0.00000000    0.00000000
     The SCF correction term to forces
     atom    1 type  1   force =     0.00000000    0.00000000    0.00000000
     atom    2 type  1   force =     0.00000000    0.00000000    0.00000000
     atom    3 type  2   force =     0.00000000    0.00000000   -0.00000000
     atom    4 type  2   force =    -0.00000000    0.00000000   -0.00000000
     atom    5 type  2   force =     0.00000000   -0.00000000    0.00000000
     atom    6 type  2   force =    -0.00000000    0.00000000    0.00000000
     atom    7 type  3   force =     0.00000422    0.00000422    0.00000422
     atom    8 type  3   force =    -0.00000422   -0.00000422   -0.00000422
     atom    9 type  3   force =    -0.00000422   -0.00000422    0.00000422
     atom   10 type  3   force =     0.00000422    0.00000422   -0.00000422
     atom   11 type  3   force =    -0.00000422    0.00000422   -0.00000422
     atom   12 type  3   force =     0.00000422   -0.00000422    0.00000422
     atom   13 type  3   force =     0.00000422   -0.00000422   -0.00000422
     atom   14 type  3   force =    -0.00000422    0.00000422    0.00000422

     Total force =     0.000221     Total SCF correction =     0.000021

     Computing stress (Cartesian axis) and pressure

     negative rho (up, down):  1.232E-04 2.931E-04
          total   stress  (Ry/bohr**3)                   (kbar)     P=       -0.65
  -0.00000442  -0.00000000  -0.00000000           -0.65       -0.00       -0.00
  -0.00000000  -0.00000442  -0.00000000           -0.00       -0.65       -0.00
  -0.00000000  -0.00000000  -0.00000442           -0.00       -0.00       -0.65

     kinetic stress (kbar)  52315.66      0.00      0.00
                                0.00  52315.66     -0.00
                                0.00     -0.00  52315.66

     local   stress (kbar)  16390.02      0.00      0.00
                                0.00  16390.02      0.00
                                0.00      0.00  16390.02

     nonloc. stress (kbar) -27061.68      0.00      0.00
                                0.00 -27061.68      0.00
                                0.00      0.00 -27061.68

     hartree stress (kbar)  27882.01     -0.00      0.00
                               -0.00  27882.01      0.00
                                0.00      0.00  27882.01

     exc-cor stress (kbar)  -3473.71     -0.00      0.00
                               -0.00  -3473.71      0.00
                                0.00      0.00  -3473.71

     corecor stress (kbar)  -8553.10     -0.00      0.00
                               -0.00  -8553.10     -0.00
                                0.00     -0.00  -8553.10

     ewald   stress (kbar) -57499.84     -0.00     -0.00
                               -0.00 -57499.84     -0.00
                               -0.00     -0.00 -57499.84

     hubbard stress (kbar)      0.00      0.00      0.00
                                0.00      0.00      0.00
                                0.00      0.00      0.00

     DFT-D   stress (kbar)      0.00      0.00      0.00
                                0.00      0.00      0.00
                                0.00      0.00      0.00

     XDM     stress (kbar)      0.00      0.00      0.00
                                0.00      0.00      0.00
                                0.00      0.00      0.00

     dft-nl  stress (kbar)      0.00      0.00      0.00
                                0.00      0.00      0.00
                                0.00      0.00      0.00

     TS-vdW  stress (kbar)      0.00      0.00      0.00
                                0.00      0.00      0.00
                                0.00      0.00      0.00

     MDB     stress (kbar)      0.00      0.00      0.00
                                0.00      0.00      0.00
                                0.00      0.00      0.00

     3D-RISM stress (kbar)      0.00      0.00      0.00
                                0.00      0.00      0.00
                                0.00      0.00      0.00

     Writing all to output data dir ./out/Fe3O4.save/

     General routines

     Parallel routines

     PAW routines

   This run was terminated on:  11: 9:45  10Mar2025

   JOB DONE.